c "500186.clq"
p edge 200 784
e 1 5
e 1 6
e 1 7
e 1 10
e 1 13
e 1 19
e 1 23
e 1 27
e 1 35
e 1 43
e 1 51
e 1 63
e 1 65
e 1 69
e 1 78
e 1 87
e 1 88
e 1 118
e 1 148
e 1 149
e 2 5
e 2 8
e 2 9
e 2 12
e 2 17
e 2 18
e 2 32
e 2 48
e 2 53
e 2 61
e 2 62
e 2 83
e 2 92
e 2 110
e 2 112
e 2 126
e 2 160
e 2 182
e 3 5
e 3 6
e 3 7
e 3 8
e 3 9
e 3 10
e 3 13
e 3 16
e 3 20
e 3 25
e 3 26
e 3 32
e 3 36
e 3 43
e 3 45
e 3 49
e 3 51
e 3 66
e 3 87
e 3 97
e 3 100
e 3 102
e 3 111
e 3 118
e 3 119
e 3 135
e 3 146
e 3 152
e 3 157
e 3 159
e 3 169
e 3 179
e 3 181
e 4 5
e 4 6
e 4 20
e 4 30
e 4 55
e 4 56
e 4 58
e 4 106
e 4 109
e 4 121
e 4 131
e 4 176
e 5 6
e 5 7
e 5 8
e 5 9
e 5 10
e 5 11
e 5 14
e 5 15
e 5 16
e 5 17
e 5 18
e 5 19
e 5 21
e 5 22
e 5 23
e 5 24
e 5 38
e 5 40
e 5 42
e 5 43
e 5 48
e 5 53
e 5 54
e 5 59
e 5 67
e 5 72
e 5 75
e 5 81
e 5 89
e 5 115
e 5 124
e 5 126
e 5 133
e 5 134
e 5 136
e 5 140
e 5 153
e 5 154
e 5 155
e 5 197
e 6 7
e 6 8
e 6 10
e 6 11
e 6 12
e 6 13
e 6 14
e 6 15
e 6 17
e 6 20
e 6 21
e 6 24
e 6 25
e 6 31
e 6 32
e 6 33
e 6 38
e 6 39
e 6 41
e 6 42
e 6 43
e 6 45
e 6 48
e 6 53
e 6 55
e 6 57
e 6 63
e 6 71
e 6 76
e 6 77
e 6 79
e 6 86
e 6 91
e 6 98
e 6 99
e 6 101
e 6 102
e 6 106
e 6 108
e 6 116
e 6 122
e 6 123
e 6 127
e 6 131
e 6 132
e 6 133
e 6 135
e 6 142
e 6 143
e 6 149
e 6 150
e 6 155
e 6 160
e 6 164
e 6 166
e 6 170
e 6 174
e 6 190
e 6 195
e 7 9
e 7 15
e 7 18
e 7 24
e 7 26
e 7 28
e 7 34
e 7 37
e 7 55
e 7 109
e 7 110
e 7 111
e 7 117
e 7 125
e 7 137
e 7 138
e 7 139
e 7 158
e 7 177
e 7 182
e 7 184
e 8 11
e 8 13
e 8 16
e 8 19
e 8 22
e 8 23
e 8 28
e 8 56
e 8 64
e 8 66
e 8 67
e 8 94
e 8 100
e 8 110
e 8 112
e 8 132
e 8 161
e 9 11
e 9 12
e 9 16
e 9 21
e 9 26
e 9 49
e 9 57
e 9 62
e 9 64
e 9 79
e 9 80
e 9 93
e 9 96
e 9 107
e 9 120
e 9 139
e 9 148
e 9 193
e 9 199
e 10 27
e 10 29
e 10 46
e 10 69
e 10 89
e 10 108
e 10 124
e 10 143
e 10 153
e 10 167
e 10 177
e 11 12
e 11 14
e 11 17
e 11 21
e 11 24
e 11 25
e 11 29
e 11 37
e 11 38
e 11 41
e 11 44
e 11 57
e 11 59
e 11 63
e 11 72
e 11 74
e 11 75
e 11 78
e 11 79
e 11 113
e 11 118
e 11 164
e 11 167
e 11 195
e 12 14
e 12 18
e 12 39
e 12 47
e 12 73
e 12 105
e 12 113
e 12 123
e 12 172
e 12 183
e 12 196
e 12 200
e 13 20
e 13 22
e 13 33
e 13 34
e 13 37
e 13 46
e 13 47
e 13 48
e 13 49
e 13 54
e 13 56
e 13 61
e 13 100
e 13 110
e 13 130
e 13 138
e 13 145
e 13 150
e 13 156
e 13 163
e 13 167
e 13 187
e 13 189
e 13 190
e 13 191
e 13 192
e 13 193
e 13 194
e 13 196
e 14 15
e 14 73
e 14 109
e 14 126
e 14 174
e 14 191
e 14 195
e 15 19
e 15 22
e 15 30
e 15 36
e 15 42
e 15 44
e 15 60
e 15 68
e 15 80
e 15 85
e 15 96
e 15 103
e 15 125
e 15 154
e 15 166
e 15 197
e 16 30
e 16 82
e 16 98
e 16 156
e 16 159
e 17 50
e 17 55
e 17 74
e 18 26
e 18 27
e 18 35
e 18 47
e 18 53
e 18 56
e 18 111
e 18 158
e 18 183
e 18 185
e 18 200
e 19 31
e 19 33
e 19 69
e 19 70
e 19 77
e 19 79
e 19 85
e 19 86
e 19 171
e 19 194
e 20 28
e 20 32
e 20 92
e 20 93
e 20 103
e 20 144
e 20 147
e 21 27
e 21 34
e 21 36
e 21 40
e 21 68
e 21 98
e 21 118
e 21 163
e 21 168
e 21 171
e 22 23
e 22 25
e 22 28
e 22 33
e 22 42
e 22 45
e 22 47
e 22 52
e 22 60
e 22 63
e 22 81
e 22 89
e 22 113
e 22 128
e 22 131
e 22 144
e 22 173
e 22 179
e 22 183
e 22 187
e 23 29
e 23 30
e 23 35
e 23 41
e 23 46
e 23 59
e 23 64
e 23 83
e 23 86
e 23 93
e 23 99
e 23 108
e 23 112
e 23 123
e 23 177
e 23 185
e 24 29
e 24 31
e 24 58
e 24 195
e 25 49
e 25 52
e 25 70
e 25 95
e 26 65
e 26 67
e 26 68
e 26 77
e 26 87
e 26 95
e 26 148
e 27 31
e 27 35
e 27 52
e 27 59
e 27 88
e 27 128
e 27 153
e 27 157
e 27 173
e 27 174
e 27 179
e 27 181
e 28 44
e 28 54
e 28 86
e 28 89
e 28 104
e 28 117
e 29 51
e 29 65
e 30 34
e 30 68
e 30 83
e 30 186
e 31 36
e 31 39
e 31 50
e 31 90
e 31 97
e 31 101
e 31 115
e 31 119
e 31 124
e 31 140
e 31 141
e 31 145
e 31 151
e 31 184
e 32 38
e 32 84
e 32 140
e 32 147
e 33 39
e 33 85
e 33 101
e 33 138
e 34 37
e 34 40
e 34 70
e 34 72
e 34 101
e 34 105
e 34 120
e 34 137
e 34 162
e 34 180
e 35 41
e 35 44
e 35 52
e 35 57
e 35 58
e 35 73
e 35 76
e 35 78
e 35 84
e 35 154
e 35 158
e 35 159
e 35 183
e 35 186
e 36 50
e 36 120
e 38 54
e 38 60
e 38 73
e 38 87
e 38 94
e 38 105
e 38 114
e 38 122
e 38 133
e 38 135
e 38 157
e 39 40
e 39 45
e 39 58
e 39 90
e 39 107
e 39 125
e 39 164
e 39 175
e 39 176
e 39 177
e 39 178
e 40 50
e 40 127
e 40 199
e 41 46
e 41 51
e 41 60
e 41 64
e 41 82
e 41 102
e 41 109
e 41 127
e 41 128
e 41 136
e 41 155
e 41 159
e 41 161
e 41 169
e 41 178
e 41 185
e 41 193
e 42 85
e 43 81
e 43 84
e 43 114
e 43 120
e 43 135
e 43 185
e 43 187
e 44 74
e 45 61
e 46 186
e 47 62
e 47 65
e 47 96
e 47 107
e 47 125
e 47 141
e 47 155
e 47 165
e 48 95
e 48 188
e 48 189
e 48 200
e 49 129
e 50 100
e 51 69
e 51 94
e 51 140
e 52 75
e 53 61
e 53 84
e 54 67
e 54 90
e 54 146
e 54 160
e 54 162
e 54 182
e 55 98
e 55 99
e 55 116
e 56 66
e 56 99
e 56 139
e 56 172
e 57 72
e 57 76
e 57 78
e 57 115
e 58 75
e 58 91
e 58 93
e 58 104
e 58 106
e 58 168
e 58 191
e 59 62
e 59 66
e 59 80
e 59 82
e 59 151
e 60 150
e 61 91
e 61 105
e 61 137
e 61 143
e 61 153
e 62 81
e 62 111
e 62 112
e 62 147
e 62 171
e 62 184
e 62 196
e 63 76
e 63 163
e 64 71
e 64 133
e 64 149
e 64 160
e 64 164
e 64 165
e 64 167
e 65 83
e 65 94
e 65 107
e 65 181
e 66 70
e 66 96
e 67 71
e 67 172
e 67 175
e 67 186
e 68 152
e 68 188
e 69 71
e 69 88
e 69 119
e 70 97
e 70 116
e 70 152
e 70 166
e 70 180
e 71 77
e 71 90
e 71 92
e 71 114
e 71 137
e 72 74
e 72 130
e 72 142
e 72 191
e 73 80
e 73 127
e 73 154
e 73 189
e 74 104
e 75 82
e 75 91
e 75 119
e 75 122
e 75 126
e 75 143
e 75 148
e 75 179
e 75 184
e 76 129
e 76 174
e 77 123
e 77 190
e 78 92
e 78 102
e 78 113
e 78 136
e 78 175
e 79 121
e 79 170
e 79 188
e 80 95
e 81 104
e 81 108
e 81 117
e 81 142
e 81 182
e 83 88
e 84 170
e 84 198
e 86 130
e 86 162
e 87 97
e 87 157
e 89 194
e 90 132
e 91 103
e 91 114
e 91 115
e 91 128
e 91 134
e 91 139
e 91 150
e 91 161
e 92 116
e 92 129
e 92 136
e 93 144
e 93 158
e 93 165
e 93 175
e 94 156
e 94 180
e 97 106
e 97 129
e 98 178
e 99 103
e 99 134
e 99 142
e 99 198
e 100 122
e 100 131
e 100 173
e 100 181
e 102 156
e 103 145
e 103 162
e 103 169
e 106 146
e 106 151
e 108 117
e 108 121
e 108 168
e 111 173
e 113 121
e 113 130
e 113 134
e 115 176
e 116 196
e 116 198
e 118 124
e 118 194
e 119 132
e 119 178
e 121 144
e 121 147
e 122 151
e 122 189
e 123 141
e 123 145
e 126 170
e 127 146
e 127 172
e 127 187
e 128 138
e 131 165
e 133 163
e 133 171
e 137 141
e 137 168
e 138 169
e 143 152
e 148 149
e 149 166
e 151 190
e 157 161
e 157 176
e 157 188
e 165 180
e 167 197
e 170 192
e 173 197
e 174 192
e 182 192
e 182 199
e 185 193
e 185 199
e 185 200
e 194 198
